NAME : portcgen-27-16
COMMENT : portcgen N=27, seed=16
TYPE : TSP
DIMENSION : 27
EDGE_WEIGHT_TYPE : EUC_2D
NODE_COORD_SECTION
1 -55401 -73304
2 -125952 -181639
3 257443 -64367
4 -220971 182297
5 136899 6974
6 -382567 167945
7 84727 201386
8 96518 244310
9 -97173 -115168
10 -70920 395621
11 52667 -102073
12 56404 -157048
13 -393562 137001
14 488449 -51614
15 163032 -167627
16 124151 -49939
17 196398 -56433
18 -168000 35801
19 -160088 81383
20 -89657 -197597
21 190196 54059
22 285014 -384574
23 74975 -105702
24 159816 161695
25 -33413 -43207
26 -56165 131374
27 -123738 256605
